 O  H                                   
   1.00000000000000     
    10.0000000000000000    0.0000000000000000    0.0000000000000000
     0.0000000000000000   10.0000000000000000    0.0000000000000000
     0.0000000000000000    0.0000000000000000   10.0000000000000000
   O    H 
     1     2
Direct
  0.5000000000000000  0.5000000000000000  0.5299071394509554
  0.5000000000000000  0.5767176853513192  0.4701387052745218
  0.5000000000000000  0.4232823146486808  0.4701387052745218
 
  0.00000000E+00  0.00000000E+00  0.00000000E+00
  0.00000000E+00  0.00000000E+00  0.00000000E+00
  0.00000000E+00  0.00000000E+00  0.00000000E+00
